12 48 6 10
8 16 19 19 3 7 18 19 16 14 6 11 1 18 19 14 5 15 5 18 9 7 4 9 11 12 12 9 8 8 8 7 16 5 1 4 13 8 6 16 4 1 6 8 7 13 16 3 
4.18 6.76 2.87 1.61 4.9 2.79 2.79 1.69 3.13 0.81 5.51 3.17 3.78 6.02 2.82 3.5 7.84 3.04 4.71 5.44 2.19 0.45 2.58 4.06 4.63 5.73 1.1 3.6 6.08 6.3 7.76 0.87 6.64 6.6 7 2.88 2.22 2.46 5.63 2.69 1.34 2.98 6.84 1.06 1.04 3.97 6.74 0.21 
2.17 0.31 7.53 7.55 0.24 1.37 7.22 3.19 6.99 4.57 2.25 0.29 6.95 7.98 6.28 4.12 7.05 3.23 3.8 7.36 1.89 6.31 2.08 6.49 3.93 5.98 2.01 7.93 3.02 3.77 1.06 3.27 2.04 2.86 1.87 4.06 3.32 5.75 5.32 3.89 0.1 2.54 7.02 0.1 7.96 1.4 7.13 1.52 
6.79 7.1 0.23 3.6 4.13 5.07 1.88 0.73 2.5 2.9 7.61 1.26 3.91 1.88 4.32 1.02 5.62 2.97 2.7 1.58 2.6 7.82 6.22 4.57 3.32 2.79 5.31 3.4 4.81 5.38 7.54 3.77 2.81 7.95 5.06 2.24 5.17 3.89 5.16 3.36 6.72 0.36 1.87 3.5 6.82 1.34 2.39 2.35 
4.25 0.27 5.41 5.68 2.09 2.59 6.04 2.79 3.4 3.42 6.79 7.66 4.18 2.82 7.11 1.43 4.89 6.17 2.13 4.26 2.58 0.34 2.64 0 0.65 3.71 5.27 1.35 0.99 3.87 1.18 0.63 7.69 6.46 4.63 0.98 5.2 0.95 7.61 7.58 4.22 6.98 1.48 3.21 2.71 2.83 4.48 6.7 
6.53 5.63 3.15 3.88 0.64 7.97 2.21 2.84 6.14 6.73 5.3 1.17 2.31 6.45 6.88 6.28 5.22 5.21 6.92 7.96 7.53 0.73 3.99 7.65 2.25 5.72 6.83 6.04 6.85 5.21 6.6 7.71 6.07 5.61 7.17 6.25 4.01 4.41 0.06 2.06 5.52 3.33 1.67 3.73 6.34 3.86 2.3 0.72 
2.34 5.93 4.24 6.4 5.81 4.51 5.56 5.91 4.78 0.07 6.45 3.36 6.17 7.22 2.2 2.59 0.55 6.67 6.53 6.99 6.2 6.46 0.14 1.19 7.39 3.38 1.47 5.44 1.56 6.16 1.82 5.5 0.59 4.82 7.09 5.3 3.85 3.14 3.96 7.82 4.35 7.88 4.39 7.77 5.95 3.98 3.24 5.53 
4 4 4 4 4 4 4 4 4 4 4 4 4 4 4 4 4 4 4 4 4 4 4 4 4 4 4 4 4 4 4 4 4 4 4 4 4 4 4 4 4 4 4 4 4 4 4 4 
4.95 7.49 3.69 0.1 2.54 6.38 3.19 5.81 0.04 4.55 6.42 1.14 4.42 6.28 6.67 2.74 5.5 1.75 1.2 5.77 5.13 3.9 4.76 0.29 1.55 3.81 1.69 7.14 0.67 0.99 0.64 6.58 2.1 4.99 7.73 5.05 4.91 2.81 3.87 5.24 1.8 3.9 7.24 5.24 0.06 1.2 7.33 7.94 
1.35 7.67 6.54 1.83 4.1 7.66 7.16 0.28 0.93 6.99 3.74 5.33 0.16 6.66 6.99 1.73 5.95 7.48 7.13 2.65 6.48 0.3 1.05 5.17 2.59 2.77 0.87 7.07 2.02 1.84 1.61 2.26 2.81 4.57 2.34 3.21 7.29 5.44 2.74 4.47 6.01 1.71 2.11 6.28 6.61 5.43 2.82 4.43 
2.29 5.28 1.47 3.91 4.91 1.77 6.4 4.85 4.24 3.2 0.64 2.74 8 6.93 1.81 6.65 3.32 0.85 6.55 4.65 3.63 6.5 1.55 2.19 2.01 5.91 4.13 4.53 6.66 0.15 4.95 5.53 6.05 7.34 2.78 7.95 7.25 4.66 2.23 0.4 3.95 1.95 5.93 4.24 5.78 7.47 1.95 7.28 
1.12 0.33 2.7 4.27 3.27 0.62 4.45 6.61 4.45 7.87 4.09 7.32 5.25 5.54 6.61 7.88 6.79 6.87 6.59 5.28 6.87 3.06 3.09 2.45 4.23 0.78 3.06 4.74 1.5 7.52 4.77 6.98 1.66 3.69 7.08 1.69 6.6 3.84 1.29 1.4 4.63 7.87 0.08 0.65 4.45 3.43 4.15 3.2 
6.6 6.11 5.01 4.05 3.52 1.69 0.52 4.96 6.06 1 1.17 4.13 1.7 4.47 3.16 2.58 4.9 1.68 0.37 1.19 1.44 7.03 5.57 0.13 5.45 5.24 7.47 4.65 5.62 4.27 4.52 6.92 3.63 0.52 0.29 7.54 5.36 5.12 4.45 7.58 0.29 5.35 6.16 2.66 5.77 6.5 3.73 3.08 
1 1 1 1 1 1 1 1 1 1 1 1 1 1 1 1 1 1 1 1 1 1 1 1 1 1 1 1 1 1 1 1 1 1 1 1 1 1 1 1 1 1 1 1 1 1 1 1 
1 1 1 1 1 1 1 1 1 1 1 1 1 1 1 1 1 1 1 1 1 1 1 1 1 1 1 1 1 1 1 1 1 1 1 1 1 1 1 1 1 1 1 1 1 1 1 1 
1 1 1 1 1 1 1 1 1 1 1 1 1 1 1 1 1 1 1 1 1 1 1 1 1 1 1 1 1 1 1 1 1 1 1 1 1 1 1 1 1 1 1 1 1 1 1 1 
1 1 1 1 1 1 1 1 1 1 1 1 1 1 1 1 1 1 1 1 1 1 1 1 1 1 1 1 1 1 1 1 1 1 1 1 1 1 1 1 1 1 1 1 1 1 1 1 
1 1 1 1 1 1 1 1 1 1 1 1 1 1 1 1 1 1 1 1 1 1 1 1 1 1 1 1 1 1 1 1 1 1 1 1 1 1 1 1 1 1 1 1 1 1 1 1 
1 1 1 1 1 1 1 1 1 1 1 1 1 1 1 1 1 1 1 1 1 1 1 1 1 1 1 1 1 1 1 1 1 1 1 1 1 1 1 1 1 1 1 1 1 1 1 1 
1 1 1 1 1 1 1 1 1 1 1 1 1 1 1 1 1 1 1 1 1 1 1 1 1 1 1 1 1 1 1 1 1 1 1 1 1 1 1 1 1 1 1 1 1 1 1 1 
1 1 1 1 1 1 1 1 1 1 1 1 1 1 1 1 1 1 1 1 1 1 1 1 1 1 1 1 1 1 1 1 1 1 1 1 1 1 1 1 1 1 1 1 1 1 1 1 
1 1 1 1 1 1 1 1 1 1 1 1 1 1 1 1 1 1 1 1 1 1 1 1 1 1 1 1 1 1 1 1 1 1 1 1 1 1 1 1 1 1 1 1 1 1 1 1 
1 1 1 1 1 1 1 1 1 1 1 1 1 1 1 1 1 1 1 1 1 1 1 1 1 1 1 1 1 1 1 1 1 1 1 1 1 1 1 1 1 1 1 1 1 1 1 1 
1 1 1 1 1 1 1 1 1 1 1 1 1 1 1 1 1 1 1 1 1 1 1 1 1 1 1 1 1 1 1 1 1 1 1 1 1 1 1 1 1 1 1 1 1 1 1 1 
1 1 1 1 1 1 1 1 1 1 1 1 1 1 1 1 1 1 1 1 1 1 1 1 1 1 1 1 1 1 1 1 1 1 1 1 1 1 1 1 1 1 1 1 1 1 1 1 
0.01 0.01 0.01 0.01 0.01 0.01 0.01 0.01 0.01 0.01 0.01 0.01 0.01 0.01 0.01 0.01 0.01 0.01 0.01 0.01 0.01 0.01 0.01 0.01 0.01 0.01 0.01 0.01 0.01 0.01 0.01 0.01 0.01 0.01 0.01 0.01 0.01 0.01 0.01 0.01 0.01 0.01 0.01 0.01 0.01 0.01 0.01 0.01 
0.02 0.02 0.02 0.02 0.02 0.02 0.02 0.02 0.02 0.02 0.02 0.02 0.02 0.02 0.02 0.02 0.02 0.02 0.02 0.02 0.02 0.02 0.02 0.02 0.02 0.02 0.02 0.02 0.02 0.02 0.02 0.02 0.02 0.02 0.02 0.02 0.02 0.02 0.02 0.02 0.02 0.02 0.02 0.02 0.02 0.02 0.02 0.02 
0.03 0.03 0.03 0.03 0.03 0.03 0.03 0.03 0.03 0.03 0.03 0.03 0.03 0.03 0.03 0.03 0.03 0.03 0.03 0.03 0.03 0.03 0.03 0.03 0.03 0.03 0.03 0.03 0.03 0.03 0.03 0.03 0.03 0.03 0.03 0.03 0.03 0.03 0.03 0.03 0.03 0.03 0.03 0.03 0.03 0.03 0.03 0.03 
0.04 0.04 0.04 0.04 0.04 0.04 0.04 0.04 0.04 0.04 0.04 0.04 0.04 0.04 0.04 0.04 0.04 0.04 0.04 0.04 0.04 0.04 0.04 0.04 0.04 0.04 0.04 0.04 0.04 0.04 0.04 0.04 0.04 0.04 0.04 0.04 0.04 0.04 0.04 0.04 0.04 0.04 0.04 0.04 0.04 0.04 0.04 0.04 
0.05 0.05 0.05 0.05 0.05 0.05 0.05 0.05 0.05 0.05 0.05 0.05 0.05 0.05 0.05 0.05 0.05 0.05 0.05 0.05 0.05 0.05 0.05 0.05 0.05 0.05 0.05 0.05 0.05 0.05 0.05 0.05 0.05 0.05 0.05 0.05 0.05 0.05 0.05 0.05 0.05 0.05 0.05 0.05 0.05 0.05 0.05 0.05 
0.06 0.06 0.06 0.06 0.06 0.06 0.06 0.06 0.06 0.06 0.06 0.06 0.06 0.06 0.06 0.06 0.06 0.06 0.06 0.06 0.06 0.06 0.06 0.06 0.06 0.06 0.06 0.06 0.06 0.06 0.06 0.06 0.06 0.06 0.06 0.06 0.06 0.06 0.06 0.06 0.06 0.06 0.06 0.06 0.06 0.06 0.06 0.06 
0.07 0.07 0.07 0.07 0.07 0.07 0.07 0.07 0.07 0.07 0.07 0.07 0.07 0.07 0.07 0.07 0.07 0.07 0.07 0.07 0.07 0.07 0.07 0.07 0.07 0.07 0.07 0.07 0.07 0.07 0.07 0.07 0.07 0.07 0.07 0.07 0.07 0.07 0.07 0.07 0.07 0.07 0.07 0.07 0.07 0.07 0.07 0.07 
0.2 0.2 0.2 0.2 0.2 0.2 0.2 0.2 0.2 0.2 0.2 0.2 0.2 0.2 0.2 0.2 0.2 0.2 0.2 0.2 0.2 0.2 0.2 0.2 0.2 0.2 0.2 0.2 0.2 0.2 0.2 0.2 0.2 0.2 0.2 0.2 0.2 0.2 0.2 0.2 0.2 0.2 0.2 0.2 0.2 0.2 0.2 0.2 
0.4 0.4 0.4 0.4 0.4 0.4 0.4 0.4 0.4 0.4 0.4 0.4 0.4 0.4 0.4 0.4 0.4 0.4 0.4 0.4 0.4 0.4 0.4 0.4 0.4 0.4 0.4 0.4 0.4 0.4 0.4 0.4 0.4 0.4 0.4 0.4 0.4 0.4 0.4 0.4 0.4 0.4 0.4 0.4 0.4 0.4 0.4 0.4 
0.6 0.6 0.6 0.6 0.6 0.6 0.6 0.6 0.6 0.6 0.6 0.6 0.6 0.6 0.6 0.6 0.6 0.6 0.6 0.6 0.6 0.6 0.6 0.6 0.6 0.6 0.6 0.6 0.6 0.6 0.6 0.6 0.6 0.6 0.6 0.6 0.6 0.6 0.6 0.6 0.6 0.6 0.6 0.6 0.6 0.6 0.6 0.6 
0.8 0.8 0.8 0.8 0.8 0.8 0.8 0.8 0.8 0.8 0.8 0.8 0.8 0.8 0.8 0.8 0.8 0.8 0.8 0.8 0.8 0.8 0.8 0.8 0.8 0.8 0.8 0.8 0.8 0.8 0.8 0.8 0.8 0.8 0.8 0.8 0.8 0.8 0.8 0.8 0.8 0.8 0.8 0.8 0.8 0.8 0.8 0.8 
1 1 1 1 1 1 1 1 1 1 1 1 1 1 1 1 1 1 1 1 1 1 1 1 1 1 1 1 1 1 1 1 1 1 1 1 1 1 1 1 1 1 1 1 1 1 1 1 
